108
Lattice="11.4096 0.0 0.0 0.0 11.4096 0.0 0.0 0.0 11.4096" Properties=species:S:1:pos:R:3 pbc="T T T"
Rh       0.00000000       0.00000000       0.00000000
Rh       0.00000000       1.90160000       1.90160000
Rh       1.90160000       0.00000000       1.90160000
Rh       1.90160000       1.90160000       0.00000000
Rh       0.00000000       0.00000000       3.80320000
Rh       0.00000000       1.90160000       5.70480000
Rh       1.90160000       0.00000000       5.70480000
Rh       1.90160000       1.90160000       3.80320000
Rh       0.00000000       0.00000000       7.60640000
Rh       0.00000000       1.90160000       9.50800000
Rh       1.90160000       0.00000000       9.50800000
Rh       1.90160000       1.90160000       7.60640000
Rh       0.00000000       3.80320000       0.00000000
Rh       0.00000000       5.70480000       1.90160000
Rh       1.90160000       3.80320000       1.90160000
Rh       1.90160000       5.70480000       0.00000000
Rh       0.00000000       3.80320000       3.80320000
Rh       0.00000000       5.70480000       5.70480000
Rh       1.90160000       3.80320000       5.70480000
Rh       1.90160000       5.70480000       3.80320000
Rh       0.00000000       3.80320000       7.60640000
Rh       0.00000000       5.70480000       9.50800000
Rh       1.90160000       3.80320000       9.50800000
Rh       1.90160000       5.70480000       7.60640000
Rh       0.00000000       7.60640000       0.00000000
Rh       0.00000000       9.50800000       1.90160000
Rh       1.90160000       7.60640000       1.90160000
Rh       1.90160000       9.50800000       0.00000000
Rh       0.00000000       7.60640000       3.80320000
Rh       0.00000000       9.50800000       5.70480000
Rh       1.90160000       7.60640000       5.70480000
Rh       1.90160000       9.50800000       3.80320000
Rh       0.00000000       7.60640000       7.60640000
Rh       0.00000000       9.50800000       9.50800000
Rh       1.90160000       7.60640000       9.50800000
Rh       1.90160000       9.50800000       7.60640000
Rh       3.80320000       0.00000000       0.00000000
Rh       3.80320000       1.90160000       1.90160000
Rh       5.70480000       0.00000000       1.90160000
Rh       5.70480000       1.90160000       0.00000000
Rh       3.80320000       0.00000000       3.80320000
Rh       3.80320000       1.90160000       5.70480000
Rh       5.70480000       0.00000000       5.70480000
Rh       5.70480000       1.90160000       3.80320000
Rh       3.80320000       0.00000000       7.60640000
Rh       3.80320000       1.90160000       9.50800000
Rh       5.70480000       0.00000000       9.50800000
Rh       5.70480000       1.90160000       7.60640000
Rh       3.80320000       3.80320000       0.00000000
Rh       3.80320000       5.70480000       1.90160000
Rh       5.70480000       3.80320000       1.90160000
Rh       5.70480000       5.70480000       0.00000000
Rh       3.80320000       3.80320000       3.80320000
Rh       3.80320000       5.70480000       5.70480000
Rh       5.70480000       3.80320000       5.70480000
Rh       5.70480000       5.70480000       3.80320000
Rh       3.80320000       3.80320000       7.60640000
Rh       3.80320000       5.70480000       9.50800000
Rh       5.70480000       3.80320000       9.50800000
Rh       5.70480000       5.70480000       7.60640000
Rh       3.80320000       7.60640000       0.00000000
Rh       3.80320000       9.50800000       1.90160000
Rh       5.70480000       7.60640000       1.90160000
Rh       5.70480000       9.50800000       0.00000000
Rh       3.80320000       7.60640000       3.80320000
Rh       3.80320000       9.50800000       5.70480000
Rh       5.70480000       7.60640000       5.70480000
Rh       5.70480000       9.50800000       3.80320000
Rh       3.80320000       7.60640000       7.60640000
Rh       3.80320000       9.50800000       9.50800000
Rh       5.70480000       7.60640000       9.50800000
Rh       5.70480000       9.50800000       7.60640000
Rh       7.60640000       0.00000000       0.00000000
Rh       7.60640000       1.90160000       1.90160000
Rh       9.50800000       0.00000000       1.90160000
Rh       9.50800000       1.90160000       0.00000000
Rh       7.60640000       0.00000000       3.80320000
Rh       7.60640000       1.90160000       5.70480000
Rh       9.50800000       0.00000000       5.70480000
Rh       9.50800000       1.90160000       3.80320000
Rh       7.60640000       0.00000000       7.60640000
Rh       7.60640000       1.90160000       9.50800000
Rh       9.50800000       0.00000000       9.50800000
Rh       9.50800000       1.90160000       7.60640000
Rh       7.60640000       3.80320000       0.00000000
Rh       7.60640000       5.70480000       1.90160000
Rh       9.50800000       3.80320000       1.90160000
Rh       9.50800000       5.70480000       0.00000000
Rh       7.60640000       3.80320000       3.80320000
Rh       7.60640000       5.70480000       5.70480000
Rh       9.50800000       3.80320000       5.70480000
Rh       9.50800000       5.70480000       3.80320000
Rh       7.60640000       3.80320000       7.60640000
Rh       7.60640000       5.70480000       9.50800000
Rh       9.50800000       3.80320000       9.50800000
Rh       9.50800000       5.70480000       7.60640000
Rh       7.60640000       7.60640000       0.00000000
Rh       7.60640000       9.50800000       1.90160000
Rh       9.50800000       7.60640000       1.90160000
Rh       9.50800000       9.50800000       0.00000000
Rh       7.60640000       7.60640000       3.80320000
Rh       7.60640000       9.50800000       5.70480000
Rh       9.50800000       7.60640000       5.70480000
Rh       9.50800000       9.50800000       3.80320000
Rh       7.60640000       7.60640000       7.60640000
Rh       7.60640000       9.50800000       9.50800000
Rh       9.50800000       7.60640000       9.50800000
Rh       9.50800000       9.50800000       7.60640000
