144
Lattice="16.135611061252067 0.0 0.0 0.0 9.315899389752982 0.0 0.0 0.0 24.978892718909922" Properties=species:S:1:pos:R:3:tags:I:1 pbc="T T F"
Rh       1.34463426       0.77632495       7.00000000        6
Rh       4.03390277       0.77632495       7.00000000        6
Rh       6.72317128       0.77632495       7.00000000        6
Rh       9.41243979       0.77632495       7.00000000        6
Rh      12.10170830       0.77632495       7.00000000        6
Rh      14.79097681       0.77632495       7.00000000        6
Rh       0.00000000       3.10529980       7.00000000        6
Rh       2.68926851       3.10529980       7.00000000        6
Rh       5.37853702       3.10529980       7.00000000        6
Rh       8.06780553       3.10529980       7.00000000        6
Rh      10.75707404       3.10529980       7.00000000        6
Rh      13.44634255       3.10529980       7.00000000        6
Rh       1.34463426       5.43427464       7.00000000        6
Rh       4.03390277       5.43427464       7.00000000        6
Rh       6.72317128       5.43427464       7.00000000        6
Rh       9.41243979       5.43427464       7.00000000        6
Rh      12.10170830       5.43427464       7.00000000        6
Rh      14.79097681       5.43427464       7.00000000        6
Rh       0.00000000       7.76324949       7.00000000        6
Rh       2.68926851       7.76324949       7.00000000        6
Rh       5.37853702       7.76324949       7.00000000        6
Rh       8.06780553       7.76324949       7.00000000        6
Rh      10.75707404       7.76324949       7.00000000        6
Rh      13.44634255       7.76324949       7.00000000        6
Rh       0.00000000       1.55264990       9.19577854        5
Rh       2.68926851       1.55264990       9.19577854        5
Rh       5.37853702       1.55264990       9.19577854        5
Rh       8.06780553       1.55264990       9.19577854        5
Rh      10.75707404       1.55264990       9.19577854        5
Rh      13.44634255       1.55264990       9.19577854        5
Rh       1.34463426       3.88162475       9.19577854        5
Rh       4.03390277       3.88162475       9.19577854        5
Rh       6.72317128       3.88162475       9.19577854        5
Rh       9.41243979       3.88162475       9.19577854        5
Rh      12.10170830       3.88162475       9.19577854        5
Rh      14.79097681       3.88162475       9.19577854        5
Rh       0.00000000       6.21059959       9.19577854        5
Rh       2.68926851       6.21059959       9.19577854        5
Rh       5.37853702       6.21059959       9.19577854        5
Rh       8.06780553       6.21059959       9.19577854        5
Rh      10.75707404       6.21059959       9.19577854        5
Rh      13.44634255       6.21059959       9.19577854        5
Rh       1.34463426       8.53957444       9.19577854        5
Rh       4.03390277       8.53957444       9.19577854        5
Rh       6.72317128       8.53957444       9.19577854        5
Rh       9.41243979       8.53957444       9.19577854        5
Rh      12.10170830       8.53957444       9.19577854        5
Rh      14.79097681       8.53957444       9.19577854        5
Rh       0.00000000       0.00000000      11.39155709        4
Rh       2.68926851       0.00000000      11.39155709        4
Rh       5.37853702       0.00000000      11.39155709        4
Rh       8.06780553       0.00000000      11.39155709        4
Rh      10.75707404       0.00000000      11.39155709        4
Rh      13.44634255       0.00000000      11.39155709        4
Rh       1.34463426       2.32897485      11.39155709        4
Rh       4.03390277       2.32897485      11.39155709        4
Rh       6.72317128       2.32897485      11.39155709        4
Rh       9.41243979       2.32897485      11.39155709        4
Rh      12.10170830       2.32897485      11.39155709        4
Rh      14.79097681       2.32897485      11.39155709        4
Rh       0.00000000       4.65794969      11.39155709        4
Rh       2.68926851       4.65794969      11.39155709        4
Rh       5.37853702       4.65794969      11.39155709        4
Rh       8.06780553       4.65794969      11.39155709        4
Rh      10.75707404       4.65794969      11.39155709        4
Rh      13.44634255       4.65794969      11.39155709        4
Rh       1.34463426       6.98692454      11.39155709        4
Rh       4.03390277       6.98692454      11.39155709        4
Rh       6.72317128       6.98692454      11.39155709        4
Rh       9.41243979       6.98692454      11.39155709        4
Rh      12.10170830       6.98692454      11.39155709        4
Rh      14.79097681       6.98692454      11.39155709        4
Rh       1.34463426       0.77632495      13.58733563        3
Rh       4.03390277       0.77632495      13.58733563        3
Rh       6.72317128       0.77632495      13.58733563        3
Rh       9.41243979       0.77632495      13.58733563        3
Rh      12.10170830       0.77632495      13.58733563        3
Rh      14.79097681       0.77632495      13.58733563        3
Rh       0.00000000       3.10529980      13.58733563        3
Rh       2.68926851       3.10529980      13.58733563        3
Rh       5.37853702       3.10529980      13.58733563        3
Rh       8.06780553       3.10529980      13.58733563        3
Rh      10.75707404       3.10529980      13.58733563        3
Rh      13.44634255       3.10529980      13.58733563        3
Rh       1.34463426       5.43427464      13.58733563        3
Rh       4.03390277       5.43427464      13.58733563        3
Rh       6.72317128       5.43427464      13.58733563        3
Rh       9.41243979       5.43427464      13.58733563        3
Rh      12.10170830       5.43427464      13.58733563        3
Rh      14.79097681       5.43427464      13.58733563        3
Rh       0.00000000       7.76324949      13.58733563        3
Rh       2.68926851       7.76324949      13.58733563        3
Rh       5.37853702       7.76324949      13.58733563        3
Rh       8.06780553       7.76324949      13.58733563        3
Rh      10.75707404       7.76324949      13.58733563        3
Rh      13.44634255       7.76324949      13.58733563        3
Rh       0.00000000       1.55264990      15.78311418        2
Rh       2.68926851       1.55264990      15.78311418        2
Rh       5.37853702       1.55264990      15.78311418        2
Rh       8.06780553       1.55264990      15.78311418        2
Rh      10.75707404       1.55264990      15.78311418        2
Rh      13.44634255       1.55264990      15.78311418        2
Rh       1.34463426       3.88162475      15.78311418        2
Rh       4.03390277       3.88162475      15.78311418        2
Rh       6.72317128       3.88162475      15.78311418        2
Rh       9.41243979       3.88162475      15.78311418        2
Rh      12.10170830       3.88162475      15.78311418        2
Rh      14.79097681       3.88162475      15.78311418        2
Rh       0.00000000       6.21059959      15.78311418        2
Rh       2.68926851       6.21059959      15.78311418        2
Rh       5.37853702       6.21059959      15.78311418        2
Rh       8.06780553       6.21059959      15.78311418        2
Rh      10.75707404       6.21059959      15.78311418        2
Rh      13.44634255       6.21059959      15.78311418        2
Rh       1.34463426       8.53957444      15.78311418        2
Rh       4.03390277       8.53957444      15.78311418        2
Rh       6.72317128       8.53957444      15.78311418        2
Rh       9.41243979       8.53957444      15.78311418        2
Rh      12.10170830       8.53957444      15.78311418        2
Rh      14.79097681       8.53957444      15.78311418        2
Rh       0.00000000       0.00000000      17.97889272        1
Rh       2.68926851       0.00000000      17.97889272        1
Rh       5.37853702       0.00000000      17.97889272        1
Rh       8.06780553       0.00000000      17.97889272        1
Rh      10.75707404       0.00000000      17.97889272        1
Rh      13.44634255       0.00000000      17.97889272        1
Rh       1.34463426       2.32897485      17.97889272        1
Rh       4.03390277       2.32897485      17.97889272        1
Rh       6.72317128       2.32897485      17.97889272        1
Rh       9.41243979       2.32897485      17.97889272        1
Rh      12.10170830       2.32897485      17.97889272        1
Rh      14.79097681       2.32897485      17.97889272        1
Rh       0.00000000       4.65794969      17.97889272        1
Rh       2.68926851       4.65794969      17.97889272        1
Rh       5.37853702       4.65794969      17.97889272        1
Rh       8.06780553       4.65794969      17.97889272        1
Rh      10.75707404       4.65794969      17.97889272        1
Rh      13.44634255       4.65794969      17.97889272        1
Rh       1.34463426       6.98692454      17.97889272        1
Rh       4.03390277       6.98692454      17.97889272        1
Rh       6.72317128       6.98692454      17.97889272        1
Rh       9.41243979       6.98692454      17.97889272        1
Rh      12.10170830       6.98692454      17.97889272        1
Rh      14.79097681       6.98692454      17.97889272        1
