!BIOSYM archive 3
PBC=ON
Materials Studio Generated CAR File
!DATE Sun Jan 08 22:43:56 2017
PBC    2.68927   4.65795   6.58734  90.0000   90.0000   90.0000 (P1)
Rh1      0.000000000    0.000000000    0.000000000 RHM  1      Rh      Rh  0.000
Rh2      1.344635000    2.328975000   -0.000000000 RHM  1      Rh      Rh  0.000
Rh3      0.000000000    1.552650000    2.195780000 RHM  1      Rh      Rh  0.000
Rh4      1.344635000    3.881625000    2.195780000 RHM  1      Rh      Rh  0.000
Rh5      1.344635000    0.776325000    4.391560000 RHM  1      Rh      Rh  0.000
Rh6      0.000000000    3.105300000    4.391560000 RHM  1      Rh      Rh  0.000
end
end
